
Gurobi 11.0.0 (win64, C++) logging started Tue Jul 29 14:30:36 2025

Set parameter TokenServer to value "141.76.38.119"
### START HEURISTIC APPROACH APPROACH ###
ProblemVariant: 1
### START PREPROCESSING ###
## Start start solution procedure ##
Start solution with 8 Vehicles and total costs 1464.28 in 27.1213 s.
### END PREPROCESSING ###
Route 0 0-18-19-14-31-0 : weight util 0.518750 | volume util 0.534178 | infeasible with packing heuristic | feasible with CP model
Route 1 0-11-6-7-5-0 : weight util 0.452500 | volume util 0.616489 | infeasible with packing heuristic | feasible with CP model
Route 2 0-12-13-15-1-3-0 : weight util 0.243750 | volume util 0.618533 | infeasible with packing heuristic | feasible with CP model
Route 3 0-29-28-16-30-0 : weight util 0.587500 | volume util 0.621000 | infeasible with packing heuristic | feasible with CP model
Route 4 0-10-21-20-23-24-22-0 : weight util 0.525000 | volume util 0.654622 | infeasible with packing heuristic | feasible with CP model
Route 5 0-17-25-27-26-0 : weight util 0.818750 | volume util 0.623778 | infeasible with packing heuristic | feasible with CP model
Route 6 0-4-9-8-32-2-0 : weight util 0.525000 | volume util 0.680089 | infeasible with packing heuristic | feasible with CP model
